
Welcome to IBM(R) ILOG(R) CPLEX(R) Interactive Optimizer 22.1.1.0
  with Simplex, Mixed Integer & Barrier Optimizers
5725-A06 5725-A29 5724-Y48 5724-Y49 5724-Y54 5724-Y55 5655-Y21
Copyright IBM Corp. 1988, 2022.  All Rights Reserved.

Type 'help' for a list of available commands.
Type 'help' followed by a command name for more
information on commands.

CPLEX> Selected objective sense:  MINIMIZE
Selected objective  name:  00000000
Selected RHS        name:  RHS1
Selected bound      name:  BOUND
Problem 'ee.mps' read.
Read time = 0.03 sec. (3.17 ticks)
CPLEX> New value for time limit in seconds: 7200
CPLEX> New value for parallel optimization mode: -1
CPLEX> New value for default parallel thread count: 40
CPLEX> New value for mixed integer optimality gap tolerance: 1e-13
CPLEX> Version identifier: 22.1.1.0 | 2022-11-28 | 9160aff4d
CPXPARAM_Threads                                 40
CPXPARAM_Parallel                                -1
CPXPARAM_TimeLimit                               7200
CPXPARAM_MIP_Tolerances_MIPGap                   1e-13
Found incumbent of value 0.000000 after 0.00 sec. (0.31 ticks)
Tried aggregator 2 times.
MIP Presolve eliminated 183 rows and 2745 columns.
MIP Presolve modified 6090 coefficients.
Aggregator did 713 substitutions.
Reduced MIP has 3636 rows, 7840 columns, and 28953 nonzeros.
Reduced MIP has 7840 binaries, 0 generals, 0 SOSs, and 0 indicators.
Presolve time = 0.07 sec. (69.14 ticks)
Probing time = 0.03 sec. (5.33 ticks)
Tried aggregator 1 time.
Detecting symmetries...
Reduced MIP has 3636 rows, 7840 columns, and 28953 nonzeros.
Reduced MIP has 7840 binaries, 0 generals, 0 SOSs, and 0 indicators.
Presolve time = 0.02 sec. (22.09 ticks)
Probing time = 0.02 sec. (5.12 ticks)
Clique table members: 18788.
MIP emphasis: balance optimality and feasibility.
MIP search method: dynamic search.
Parallel mode: opportunistic, using up to 40 threads.
Root relaxation solution time = 0.06 sec. (50.28 ticks)

        Nodes                                         Cuts/
   Node  Left     Objective  IInf  Best Integer    Best Bound    ItCnt     Gap

*     0+    0                            0.0000  -1.54000e+13              --- 
*     0+    0                      -6.99000e+12  -1.54000e+13           120.31%
      0     0  -1.53900e+13   117  -6.99000e+12  -1.53900e+13     1788  120.17%
*     0+    0                      -1.53900e+13  -1.53900e+13             0.00%
      0     0  -1.53900e+13   198  -1.53900e+13      Cuts: 89     2201    0.00%
      0     0  -1.53900e+13   210  -1.53900e+13     Cuts: 127     2552    0.00%
*     0+    0                      -1.53900e+13  -1.53900e+13             0.00%
*     0+    0                      -1.53900e+13  -1.53900e+13             0.00%
*     0+    0                      -1.53900e+13  -1.53900e+13             0.00%
      0     0  -1.00000e+75     0  -1.53900e+13  -1.53900e+13     2552    0.00%
      0     2  -1.53900e+13   210  -1.53900e+13  -1.53900e+13     2552    0.00%
Elapsed time = 1.86 sec. (1070.97 ticks, tree = 0.02 MB, solutions = 6)
    135    28        cutoff        -1.53900e+13  -1.53900e+13    23150    0.00%
    510    33        cutoff        -1.53900e+13  -1.53900e+13   122887    0.00%
   1643    35        cutoff        -1.53900e+13  -1.53900e+13   127112    0.00%
   3307    45  -1.53900e+13   115  -1.53900e+13  -1.53900e+13   124652    0.00%
   4578    57        cutoff        -1.53900e+13  -1.53900e+13   153255    0.00%
   5048    29  -1.53900e+13   105  -1.53900e+13  -1.53900e+13   185560    0.00%

GUB cover cuts applied:  5
Clique cuts applied:  15
Cover cuts applied:  460
Flow cuts applied:  2
Mixed integer rounding cuts applied:  13
Zero-half cuts applied:  22
Lift and project cuts applied:  12
Gomory fractional cuts applied:  18

Root node processing (before b&c):
  Real time             =    1.18 sec. (1069.27 ticks)
Parallel b&c, 40 threads:
  Real time             =    3.62 sec. (1525.87 ticks)
  Sync time (average)   =    1.61 sec.
  Wait time (average)   =    0.00 sec.
                          ------------
Total (root+branch&cut) =    4.80 sec. (2595.14 ticks)

Solution pool: 14 solutions saved.

MIP - Integer optimal solution:  Objective = -1.5389998189e+13
Solution time =    4.93 sec.  Iterations = 233099  Nodes = 5072
Deterministic time = 2595.17 ticks  (526.37 ticks/sec)

CPLEX> Solution 'p15' written to file 'ee.sol'.
CPLEX> 